\* Problem: MasterCutStock *\

Minimize
 obj: + x_1 + x_2 + x_3 + x_4 + x_5

Subject To
 Width1: + 5 x_5 + 3 x_4 + x_3 + x_1 >= 10
 Width2: + x_4 + 2 x_3 + x_2 >= 20
 Width3: + x_2 >= 30
 Width4: + x_1 >= 40

Generals
 x_1
 x_2
 x_3
 x_4
 x_5

End
